; SPDX-License-Identifier: MPL-2.0
; Copyright (c) 2026 The RIINA Authors.
; Auto-generated from 02_FORMAL/coq/domains/BackendComposition.v (21 validations)
; Generated by scripts/generate-full-stack.py
;
; Translation Validation for BackendComposition
; Layer 9: Verifies compiler backend preserves formal semantics.
; Each assertion checks source IR ≡ target code for a proven property.

(set-logic QF_LIA)
(set-option :produce-models true)

; IR node representation
(declare-sort IRNode 0)
(declare-sort TargetNode 0)

; label_le: source semantics (matches Coq)
(declare-fun source_label_le () Bool)
(declare-fun target_label_le () Bool)
(assert (= source_label_le target_label_le))

; low_equiv: source semantics (matches Coq)
(declare-fun source_low_equiv () Bool)
(declare-fun target_low_equiv () Bool)
(assert (= source_low_equiv target_low_equiv))

; ni_secure: source semantics (matches Coq)
(declare-fun source_ni_secure () Bool)
(declare-fun target_ni_secure () Bool)
(assert (= source_ni_secure target_ni_secure))

; ni_strong: source semantics (matches Coq)
(declare-fun source_ni_strong () Bool)
(declare-fun target_ni_strong () Bool)
(assert (= source_ni_strong target_ni_strong))

; semantics_preserving: source semantics (matches Coq)
(declare-fun source_semantics_preserving () Bool)
(declare-fun target_semantics_preserving () Bool)
(assert (= source_semantics_preserving target_semantics_preserving))

; public_semantics_preserving: source semantics (matches Coq)
(declare-fun source_public_semantics_preserving () Bool)
(declare-fun target_public_semantics_preserving () Bool)
(assert (= source_public_semantics_preserving target_public_semantics_preserving))

; label_preserving: source semantics (matches Coq)
(declare-fun source_label_preserving () Bool)
(declare-fun target_label_preserving () Bool)
(assert (= source_label_preserving target_label_preserving))

; id_backend: source semantics (matches Coq)
(declare-fun source_id_backend () Bool)
(declare-fun target_id_backend () Bool)
(assert (= source_id_backend target_id_backend))

; compose_backend: source semantics (matches Coq)
(declare-fun source_compose_backend () Bool)
(declare-fun target_compose_backend () Bool)
(assert (= source_compose_backend target_compose_backend))

; wasm_backend_correct: source semantics (matches Coq)
(declare-fun source_wasm_backend_correct () Bool)
(declare-fun target_wasm_backend_correct () Bool)
(assert (= source_wasm_backend_correct target_wasm_backend_correct))

; jni_backend_correct: source semantics (matches Coq)
(declare-fun source_jni_backend_correct () Bool)
(declare-fun target_jni_backend_correct () Bool)
(assert (= source_jni_backend_correct target_jni_backend_correct))

; swift_backend_correct: source semantics (matches Coq)
(declare-fun source_swift_backend_correct () Bool)
(declare-fun target_swift_backend_correct () Bool)
(assert (= source_swift_backend_correct target_swift_backend_correct))

; ni_secure_binary: translation preserves property (matches Coq: Theorem)
(declare-fun source_ni_secure_binary () Bool)
(declare-fun target_ni_secure_binary () Bool)
(assert (= source_ni_secure_binary target_ni_secure_binary))

; ni_strong_binary: translation preserves property (matches Coq: Theorem)
(declare-fun source_ni_strong_binary () Bool)
(declare-fun target_ni_strong_binary () Bool)
(assert (= source_ni_strong_binary target_ni_strong_binary))

; id_backend_semantics_preserving: translation preserves property (matches Coq: Theorem)
(declare-fun source_id_backend_semantics_preserving () Bool)
(declare-fun target_id_backend_semantics_preserving () Bool)
(assert (= source_id_backend_semantics_preserving target_id_backend_semantics_preserving))

; id_backend_preserves_ni: translation preserves property (matches Coq: Theorem)
(declare-fun source_id_backend_preserves_ni () Bool)
(declare-fun target_id_backend_preserves_ni () Bool)
(assert (= source_id_backend_preserves_ni target_id_backend_preserves_ni))

; compose_semantics_preserving: translation preserves property (matches Coq: Theorem)
(declare-fun source_compose_semantics_preserving () Bool)
(declare-fun target_compose_semantics_preserving () Bool)
(assert (= source_compose_semantics_preserving target_compose_semantics_preserving))

; ni_secure_composed: translation preserves property (matches Coq: Theorem)
(declare-fun source_ni_secure_composed () Bool)
(declare-fun target_ni_secure_composed () Bool)
(assert (= source_ni_secure_composed target_ni_secure_composed))

; sem_pres_implies_label_pres: translation preserves property (matches Coq: Theorem)
(declare-fun source_sem_pres_implies_label_pres () Bool)
(declare-fun target_sem_pres_implies_label_pres () Bool)
(assert (= source_sem_pres_implies_label_pres target_sem_pres_implies_label_pres))

; public_output_preserved: translation preserves property (matches Coq: Theorem)
(declare-fun source_public_output_preserved () Bool)
(declare-fun target_public_output_preserved () Bool)
(assert (= source_public_output_preserved target_public_output_preserved))

; secret_output_preserved: translation preserves property (matches Coq: Theorem)
(declare-fun source_secret_output_preserved () Bool)
(declare-fun target_secret_output_preserved () Bool)
(assert (= source_secret_output_preserved target_secret_output_preserved))

; full_pipeline_ni: translation preserves property (matches Coq: Theorem)
(declare-fun source_full_pipeline_ni () Bool)
(declare-fun target_full_pipeline_ni () Bool)
(assert (= source_full_pipeline_ni target_full_pipeline_ni))

; full_pipeline_swift_ni: translation preserves property (matches Coq: Theorem)
(declare-fun source_full_pipeline_swift_ni () Bool)
(declare-fun target_full_pipeline_swift_ni () Bool)
(assert (= source_full_pipeline_swift_ni target_full_pipeline_swift_ni))

; label_le_refl: translation preserves property (matches Coq: Theorem)
(declare-fun source_label_le_refl () Bool)
(declare-fun target_label_le_refl () Bool)
(assert (= source_label_le_refl target_label_le_refl))

; label_le_trans: translation preserves property (matches Coq: Theorem)
(declare-fun source_label_le_trans () Bool)
(declare-fun target_label_le_trans () Bool)
(assert (= source_label_le_trans target_label_le_trans))

; lo_is_bottom: translation preserves property (matches Coq: Theorem)
(declare-fun source_lo_is_bottom () Bool)
(declare-fun target_lo_is_bottom () Bool)
(assert (= source_lo_is_bottom target_lo_is_bottom))

; hi_is_top: translation preserves property (matches Coq: Theorem)
(declare-fun source_hi_is_top () Bool)
(declare-fun target_hi_is_top () Bool)
(assert (= source_hi_is_top target_hi_is_top))

; compose_id_left: translation preserves property (matches Coq: Theorem)
(declare-fun source_compose_id_left () Bool)
(declare-fun target_compose_id_left () Bool)
(assert (= source_compose_id_left target_compose_id_left))

; compose_id_right: translation preserves property (matches Coq: Theorem)
(declare-fun source_compose_id_right () Bool)
(declare-fun target_compose_id_right () Bool)
(assert (= source_compose_id_right target_compose_id_right))

; compose_backend_assoc: translation preserves property (matches Coq: Theorem)
(declare-fun source_compose_backend_assoc () Bool)
(declare-fun target_compose_backend_assoc () Bool)
(assert (= source_compose_backend_assoc target_compose_backend_assoc))

; label_preserving_compose: translation preserves property (matches Coq: Theorem)
(declare-fun source_label_preserving_compose () Bool)
(declare-fun target_label_preserving_compose () Bool)
(assert (= source_label_preserving_compose target_label_preserving_compose))

; sem_pres_implies_public_sem_pres: translation preserves property (matches Coq: Theorem)
(declare-fun source_sem_pres_implies_public_sem_pres () Bool)
(declare-fun target_sem_pres_implies_public_sem_pres () Bool)
(assert (= source_sem_pres_implies_public_sem_pres target_sem_pres_implies_public_sem_pres))

; ni_strong_triple_pipeline: translation preserves property (matches Coq: Theorem)
(declare-fun source_ni_strong_triple_pipeline () Bool)
(declare-fun target_ni_strong_triple_pipeline () Bool)
(assert (= source_ni_strong_triple_pipeline target_ni_strong_triple_pipeline))

; Verify all translation validations are satisfiable
(check-sat)
(exit)
